variable	mdi string flexible # rigid or flexible

variable	nome string butane
variable	rc equal 12.0
variable	T equal 280
variable	seed equal 1234
variable	skin equal 2.0
variable	dt_nve equal 1.0
variable	dt_rigid equal 25.0

units		real
atom_style	full
bond_style	harmonic
angle_style	harmonic
dihedral_style	opls
pair_style	lj/cut ${rc}
pair_modify	mix arithmetic tail no

read_data	${nome}.lammps_data

velocity	all create ${T} ${seed}

neighbor	${skin} bin
neigh_modify	delay 5 every 1 check yes

if 		"${mdi} == rigid" &
then 		"timestep ${dt_rigid}" &
else 		"timestep ${dt_nve}"

compute_modify  thermo_temp extra 0

dump 		configs all custom 201 ${nome}_rigid.lammpstrj id id type x y z ix iy iz

fix		hmc all hmc 10 5643 ${T} ${mdi} adjust yes

compute		eatom all pe/atom
compute		pe all reduce sum c_eatom

compute		vatom all stress/atom thermo_temp virial
compute		p all reduce sum c_vatom[1] c_vatom[2] c_vatom[3]
variable	press equal -(c_p[1]+c_p[2]+c_p[3])/(3*vol)
compute         press all pressure thermo_temp virial
variable	delta_e equal round(10000*(c_pe-c_thermo_pe))
variable	delta_p equal round(10000*(c_press-v_press))

thermo_style	custom step temp pe c_pe v_delta_e c_press v_press v_delta_p f_hmc f_hmc[5]

thermo		102
restart         10002 ${nome}.res
run		10002

run		10002

